NAME : 10_3_3_3_(12).dat
COMMENT : Henke, Speranza, Wäscher, 2015
TYPE : MCVRP
DIMENSION : 11
EDGE_WEIGHT_TYPE : DISTANCE_MATRIX
CAPACITY : 1000
VEHICLES : 2
PRODUCT TYPES : 3
COMPARTMENTS : 3
NODE_COORD_SECTION
1 50 50
2 9.55 11.94
3 97.98 90
4 82.73 8.88
5 16.93 83.39
6 15.03 48.36
7 46.64 67.21
8 43.31 45.55
9 17.49 91.07
10 32.55 61.97
11 39.32 31.1
DEMAND_SECTION
1 0 0 0
2 81 67 19
3 78 53 14
4 65 6 6
5 42 42 38
6 3 24 22
7 5 67 29
8 62 30 36
9 145 35 42
10 115 70 42
11 104 25 31
DEPOT_SECTION
1
EOF